0000000000000000
0000000000000000
0000011110000000
0001100000111000
0010000000011000
0000000000001000
0000001110001000
0000010011001000
0011100001110000
0000000000000000
0000000000000000
0000000000000000
0000000000000000
0000000000000000
0000000000000000
0000000000000000
